(set-logic ALL)
(set-option :produce-models true)
(declare-sort BoundSet 0)
(declare-sort UnboundSet 0)
(declare-fun >60 () UnboundSet)
(declare-fun ktma () UnboundSet)
(declare-fun total () UnboundSet)
(declare-fun Pasal (BoundSet) Bool)
(declare-fun DalamUU (BoundSet BoundSet) Bool)
(declare-fun TidakSesuai (BoundSet BoundSet) Bool)
(declare-fun TantanganDigital (BoundSet) Bool)
(declare-fun GeopolitikModern (BoundSet) Bool)
(declare-fun Persentase (BoundSet BoundSet UnboundSet) Bool)
(declare-fun Laporan (UnboundSet BoundSet) Bool)
(declare-fun Berisiko (BoundSet BoundSet) Bool)
(declare-fun Melemahkan (BoundSet BoundSet) Bool)
(declare-fun PosisiIndonesia (BoundSet) Bool)
(declare-fun KerjaSamaMiliter (BoundSet) Bool)
(declare-fun Usang (BoundSet) Bool)
(declare-fun PerluRevisi (BoundSet UnboundSet) Bool)
(assert (not (=> (and (exists ((x BoundSet)) (exists ((y BoundSet)) (exists ((w BoundSet)) (and (Pasal x) (and (DalamUU x w) (and (and (TidakSesuai x y) (or (TantanganDigital y) (GeopolitikModern y))) (Persentase x w >60))))))) (exists ((z BoundSet)) (and (Laporan ktma w) (and (Berisiko w z) (and (Melemahkan w z) (and (PosisiIndonesia z) (KerjaSamaMiliter z))))))) (and (Usang w) (PerluRevisi w total)))))
(check-sat)
(get-model)